95
24
0 25 27 28 30 33 35 36 38 40 42 44 49 50 51 53 54 55 56 57 59 62 63 64 66 67 71 72 73 74 75 76 77 78 79 80 81 82 84 85 88 89 90 92 94
1 27 29 30 32 33 35 36 38 41 42 43 44 45 47 49 50 51 52 57 59 62 66 70 73 74 78 79 80 82 83 85 86 89 90 91 92
2 27 30 32 33 34 35 36 38 42 44 45 46 47 49 54 55 57 59 60 62 65 66 67 70 73 74 78 79 80 82 85 89 90 94
3 25 27 28 32 33 35 38 44 45 48 49 50 51 54 55 56 57 58 59 62 65 67 68 70 74 78 79 85 86 88 89 90 92
4 27 28 30 32 33 35 36 38 41 42 43 45 49 50 51 52 54 59 63 65 67 68 70 71 72 74 78 79 80 85 87 89 90 93 94
5 25 26 29 30 31 32 33 35 36 38 42 44 45 48 49 50 51 52 54 55 56 59 67 70 72 73 75 80 82 85 87 89 90 93 94
6 24 25 26 27 28 29 33 35 36 37 38 43 44 45 50 55 56 57 59 62 65 66 67 68 70 73 75 79 84 87 89 90 91 93
7 27 30 44 46 50 55 56 59 63 65 69 70 72 73 77 78 81 84 87 89 92 94
8 27 30 32 33 34 35 36 38 42 43 44 45 49 51 55 62 63 67 69 73 74 78 79 82 84 87 89 90 92
9 25 27 32 33 36 41 42 44 45 46 47 49 50 51 52 54 60 62 63 65 67 69 70 73 74 80 84 87 89 93 94
10 25 27 28 30 32 34 35 38 40 42 46 49 51 53 55 56 59 60 62 63 74 77 79 80 82 84 85 88 92 94
11 30 35 36 38 41 44 45 49 50 53 54 55 59 65 66 71 73 78 79 86 87 89 93
12 27 30 35 36 40 43 45 47 49 56 57 62 63 65 67 69 72 74 78 84 85 93
13 24 25 28 29 30 33 36 38 40 42 44 46 47 51 55 65 69 70 74 75 80 82 85 87 89 90 92 94
14 33 35 36 40 41 44 49 50 51 55 60 61 62 63 69 70 74 75 82 83 85 90 93
15 28 30 38 40 42 43 45 50 51 54 55 56 57 60 63 65 67 72 78 81 84 87 90 94
16 25 29 34 37 41 42 49 56 62 63 67 70 71 78 89
17 24 25 31 32 35 37 41 42 43 46 47 49 55 62 64 66 70 73 74 77 79 81 92
18 24 25 42 43 45 46 51 56 57 64 69 72 92
19 32 33 36 41 45 51 52 53 56 64 67 68 72 73 77 85 87 88 91
20 25 27 37 41 42 48 52 56 64 71 73 75 79 80 82 83 94
21 24 29 30 33 38 39 62 70 78 84 88
22 52 81 83
23 24 32 78 91
